instances/p1/p1_4_13-4.txt
{
	"num_strings": 4,
	"alphabet": "ACGT",
	"strings": [
		"AAACAAAAAACAC",
		"CCAAAGACAAACC",
		"ACGAACAAAAAAC",
		"ACCAAAAACACAA"
	],
	"str_length":[13,13,13,13]
}